#EJEMPLO DE UNA RED RESIDUAL
set NODES := 1 2 3 4;

set ARCS  := (1,2)  
             (1,3) 
             (2,1)
             (2,3) 
             (3,1)
             (3,4)
             (4,2)
             (4,3) ;
                          
param b :=
   1  4
   2  0
   3  0
   4 -4;

#	   cost	lower upper bound
param: 	c 	l 	u  :=
  1 2	2	0	1
  1 3	2	0	1
  2 1  -2	0	3
  2 3	1	0	2
  3 1  -2	0	1
  3 4	1	0	4 
  4 2  -3	0	3 
  4 3  -1	0	1 ;  
  